nK = 1149;
nT = 6;
nI = 14;
L = 35;
TT = 266;
np = 1;
nc = 3;
b = [58, 41, 37, 54, 51, 59, 51, 30, 55, 37, 32, 28, 59, 63];
d = [108, 90, 118, 143, 136, 131, 139, 120, 117, 109, 64, 90, 117, 148];
m = [2, 2.4, 2.5, 1.1, 1.3, 2.4, 1.2, 2.5, 2.3, 1.3, 2.1, 2.4, 1.5, 1.9];
pt = [0.34, 0.3, 0.23, 0.23, 0.22, 0.29];
st = [16.66, 15.9, 10.35, 11.96, 13.2, 17.4];
arc = {<1, 0, 1, 1, 0, 0, 0, [1, 1, 1, 1, 1, 1]>, <2, 1, 2, 1, 0, 0, 0, [1, 1, 1, 1, 1, 1]>, <3, 2, 3, 1, 0, 0, 0, [1, 1, 1, 1, 1, 1]>, <4, 3, 4, 1, 0, 0, 0, [1, 1, 1, 1, 1, 1]>, <5, 4, 5, 1, 0, 0, 0, [1, 1, 1, 1, 1, 1]>, <6, 5, 6, 1, 0, 0, 0, [1, 1, 1, 1, 1, 1]>, <7, 6, 7, 1, 0, 0, 0, [1, 1, 1, 1, 1, 1]>, <8, 7, 8, 1, 0, 0, 0, [1, 1, 1, 1, 1, 1]>, <9, 8, 9, 1, 0, 0, 0, [1, 1, 1, 1, 1, 1]>, <10, 9, 10, 1, 0, 0, 0, [1, 1, 1, 1, 1, 1]>, <11, 10, 11, 1, 0, 0, 0, [1, 1, 1, 1, 1, 1]>, <12, 11, 12, 1, 0, 0, 0, [1, 1, 1, 1, 1, 1]>, <13, 12, 13, 1, 0, 0, 0, [1, 1, 1, 1, 1, 1]>, <14, 13, 14, 1, 0, 0, 0, [1, 1, 1, 1, 1, 1]>, <15, 14, 15, 1, 0, 0, 0, [1, 1, 1, 1, 1, 1]>, <16, 15, 16, 1, 0, 0, 0, [1, 1, 1, 1, 1, 1]>, <17, 16, 17, 1, 0, 0, 0, [1, 1, 1, 1, 1, 1]>, <18, 17, 18, 1, 0, 0, 0, [1, 1, 1, 1, 1, 1]>, <19, 18, 19, 1, 0, 0, 0, [1, 1, 1, 1, 1, 1]>, <20, 19, 20, 1, 0, 0, 0, [1, 1, 1, 1, 1, 1]>, <21, 20, 21, 1, 0, 0, 0, [1, 1, 1, 1, 1, 1]>, <22, 21, 22, 1, 0, 0, 0, [1, 1, 1, 1, 1, 1]>, <23, 22, 23, 1, 0, 0, 0, [1, 1, 1, 1, 1, 1]>, <24, 23, 24, 1, 0, 0, 0, [1, 1, 1, 1, 1, 1]>, <25, 24, 25, 1, 0, 0, 0, [1, 1, 1, 1, 1, 1]>, <26, 25, 26, 1, 0, 0, 0, [1, 1, 1, 1, 1, 1]>, <27, 26, 27, 1, 0, 0, 0, [1, 1, 1, 1, 1, 1]>, <28, 27, 28, 1, 0, 0, 0, [1, 1, 1, 1, 1, 1]>, <29, 28, 29, 1, 0, 0, 0, [1, 1, 1, 1, 1, 1]>, <30, 29, 30, 1, 0, 0, 0, [1, 1, 1, 1, 1, 1]>, <31, 30, 31, 1, 0, 0, 0, [1, 1, 1, 1, 1, 1]>, <32, 31, 32, 1, 0, 0, 0, [1, 1, 1, 1, 1, 1]>, <33, 32, 33, 1, 0, 0, 0, [1, 1, 1, 1, 1, 1]>, <34, 33, 34, 1, 0, 0, 0, [1, 1, 1, 1, 1, 1]>, <35, 34, 35, 1, 0, 0, 0, [1, 1, 1, 1, 1, 1]>, <36, 4, 17, 13, 1, 0, 0, [0, 0, 1, 1, 0, 0]>, <37, 5, 18, 13, 1, 0, 0, [0, 0, 1, 1, 0, 0]>, <38, 6, 19, 13, 1, 0, 0, [0, 0, 1, 1, 0, 0]>, <39, 13, 26, 13, 1, 0, 0, [0, 0, 1, 1, 0, 0]>, <40, 14, 27, 13, 1, 0, 0, [0, 0, 1, 1, 0, 0]>, <41, 15, 28, 13, 1, 0, 0, [0, 0, 1, 1, 0, 0]>, <42, 18, 31, 13, 1, 0, 0, [0, 0, 1, 1, 0, 0]>, <43, 19, 32, 13, 1, 0, 0, [0, 0, 1, 1, 0, 0]>, <44, 20, 33, 13, 1, 0, 0, [0, 0, 1, 1, 0, 0]>, <45, 21, 34, 13, 1, 0, 0, [0, 0, 1, 1, 0, 0]>, <46, 22, 35, 13, 1, 0, 0, [0, 0, 1, 1, 0, 0]>, <47, 5, 14, 9, 2, 0, 1, [0, 0, 0, 0, 1, 1]>, <48, 6, 15, 9, 2, 0, 1, [0, 0, 0, 0, 1, 1]>, <49, 14, 23, 9, 2, 0, 1, [0, 0, 0, 0, 1, 1]>, <50, 15, 24, 9, 2, 0, 1, [0, 0, 0, 0, 1, 1]>, <51, 22, 31, 9, 2, 0, 1, [0, 0, 0, 0, 1, 1]>, <52, 23, 32, 9, 2, 0, 1, [0, 0, 0, 0, 1, 1]>, <53, 24, 33, 9, 2, 0, 1, [0, 0, 0, 0, 1, 1]>, <54, 5, 15, 10, 3, 0, 0, [0, 1, 1, 0, 0, 0]>, <55, 6, 16, 10, 3, 0, 0, [0, 1, 1, 0, 0, 0]>, <56, 14, 24, 10, 3, 0, 0, [0, 1, 1, 0, 0, 0]>, <57, 15, 25, 10, 3, 0, 0, [0, 1, 1, 0, 0, 0]>, <58, 21, 31, 10, 3, 0, 0, [0, 1, 1, 0, 0, 0]>, <59, 22, 32, 10, 3, 0, 0, [0, 1, 1, 0, 0, 0]>, <60, 23, 33, 10, 3, 0, 0, [0, 1, 1, 0, 0, 0]>, <61, 24, 34, 10, 3, 0, 0, [0, 1, 1, 0, 0, 0]>, <62, 5, 14, 9, 4, 0, 1, [0, 0, 0, 0, 1, 1]>, <63, 6, 15, 9, 4, 0, 1, [0, 0, 0, 0, 1, 1]>, <64, 14, 23, 9, 4, 0, 1, [0, 0, 0, 0, 1, 1]>, <65, 15, 24, 9, 4, 0, 1, [0, 0, 0, 0, 1, 1]>, <66, 22, 31, 9, 4, 0, 1, [0, 0, 0, 0, 1, 1]>, <67, 23, 32, 9, 4, 0, 1, [0, 0, 0, 0, 1, 1]>, <68, 24, 33, 9, 4, 0, 1, [0, 0, 0, 0, 1, 1]>, <69, 5, 14, 9, 5, 0, 1, [1, 0, 0, 0, 0, 1]>, <70, 6, 15, 9, 5, 0, 1, [1, 0, 0, 0, 0, 1]>, <71, 14, 23, 9, 5, 0, 1, [1, 0, 0, 0, 0, 1]>, <72, 15, 24, 9, 5, 0, 1, [1, 0, 0, 0, 0, 1]>, <73, 22, 31, 9, 5, 0, 1, [1, 0, 0, 0, 0, 1]>, <74, 23, 32, 9, 5, 0, 1, [1, 0, 0, 0, 0, 1]>, <75, 24, 33, 9, 5, 0, 1, [1, 0, 0, 0, 0, 1]>, <76, 5, 14, 9, 6, 1, 0, [0, 0, 1, 1, 0, 0]>, <77, 6, 15, 9, 6, 1, 0, [0, 0, 1, 1, 0, 0]>, <78, 14, 23, 9, 6, 1, 0, [0, 0, 1, 1, 0, 0]>, <79, 15, 24, 9, 6, 1, 0, [0, 0, 1, 1, 0, 0]>, <80, 22, 31, 9, 6, 1, 0, [0, 0, 1, 1, 0, 0]>, <81, 23, 32, 9, 6, 1, 0, [0, 0, 1, 1, 0, 0]>, <82, 24, 33, 9, 6, 1, 0, [0, 0, 1, 1, 0, 0]>, <83, 3, 17, 14, 7, 0, 0, [0, 1, 1, 0, 0, 0]>, <84, 4, 18, 14, 7, 0, 0, [0, 1, 1, 0, 0, 0]>, <85, 5, 19, 14, 7, 0, 0, [0, 1, 1, 0, 0, 0]>, <86, 6, 20, 14, 7, 0, 0, [0, 1, 1, 0, 0, 0]>, <87, 12, 26, 14, 7, 0, 0, [0, 1, 1, 0, 0, 0]>, <88, 13, 27, 14, 7, 0, 0, [0, 1, 1, 0, 0, 0]>, <89, 14, 28, 14, 7, 0, 0, [0, 1, 1, 0, 0, 0]>, <90, 15, 29, 14, 7, 0, 0, [0, 1, 1, 0, 0, 0]>, <91, 17, 31, 14, 7, 0, 0, [0, 1, 1, 0, 0, 0]>, <92, 18, 32, 14, 7, 0, 0, [0, 1, 1, 0, 0, 0]>, <93, 19, 33, 14, 7, 0, 0, [0, 1, 1, 0, 0, 0]>, <94, 20, 34, 14, 7, 0, 0, [0, 1, 1, 0, 0, 0]>, <95, 21, 35, 14, 7, 0, 0, [0, 1, 1, 0, 0, 0]>, <96, 4, 17, 13, 8, 0, 0, [0, 0, 1, 1, 0, 0]>, <97, 5, 18, 13, 8, 0, 0, [0, 0, 1, 1, 0, 0]>, <98, 6, 19, 13, 8, 0, 0, [0, 0, 1, 1, 0, 0]>, <99, 13, 26, 13, 8, 0, 0, [0, 0, 1, 1, 0, 0]>, <100, 14, 27, 13, 8, 0, 0, [0, 0, 1, 1, 0, 0]>, <101, 15, 28, 13, 8, 0, 0, [0, 0, 1, 1, 0, 0]>, <102, 18, 31, 13, 8, 0, 0, [0, 0, 1, 1, 0, 0]>, <103, 19, 32, 13, 8, 0, 0, [0, 0, 1, 1, 0, 0]>, <104, 20, 33, 13, 8, 0, 0, [0, 0, 1, 1, 0, 0]>, <105, 21, 34, 13, 8, 0, 0, [0, 0, 1, 1, 0, 0]>, <106, 22, 35, 13, 8, 0, 0, [0, 0, 1, 1, 0, 0]>, <107, 5, 15, 10, 9, 0, 0, [0, 0, 0, 0, 1, 1]>, <108, 6, 16, 10, 9, 0, 0, [0, 0, 0, 0, 1, 1]>, <109, 14, 24, 10, 9, 0, 0, [0, 0, 0, 0, 1, 1]>, <110, 15, 25, 10, 9, 0, 0, [0, 0, 0, 0, 1, 1]>, <111, 21, 31, 10, 9, 0, 0, [0, 0, 0, 0, 1, 1]>, <112, 22, 32, 10, 9, 0, 0, [0, 0, 0, 0, 1, 1]>, <113, 23, 33, 10, 9, 0, 0, [0, 0, 0, 0, 1, 1]>, <114, 24, 34, 10, 9, 0, 0, [0, 0, 0, 0, 1, 1]>, <115, 5, 17, 12, 10, 1, 0, [0, 0, 0, 0, 1, 1]>, <116, 6, 18, 12, 10, 1, 0, [0, 0, 0, 0, 1, 1]>, <117, 14, 26, 12, 10, 1, 0, [0, 0, 0, 0, 1, 1]>, <118, 15, 27, 12, 10, 1, 0, [0, 0, 0, 0, 1, 1]>, <119, 19, 31, 12, 10, 1, 0, [0, 0, 0, 0, 1, 1]>, <120, 20, 32, 12, 10, 1, 0, [0, 0, 0, 0, 1, 1]>, <121, 21, 33, 12, 10, 1, 0, [0, 0, 0, 0, 1, 1]>, <122, 22, 34, 12, 10, 1, 0, [0, 0, 0, 0, 1, 1]>, <123, 23, 35, 12, 10, 1, 0, [0, 0, 0, 0, 1, 1]>, <124, 4, 17, 13, 11, 0, 0, [1, 0, 0, 0, 0, 1]>, <125, 5, 18, 13, 11, 0, 0, [1, 0, 0, 0, 0, 1]>, <126, 6, 19, 13, 11, 0, 0, [1, 0, 0, 0, 0, 1]>, <127, 13, 26, 13, 11, 0, 0, [1, 0, 0, 0, 0, 1]>, <128, 14, 27, 13, 11, 0, 0, [1, 0, 0, 0, 0, 1]>, <129, 15, 28, 13, 11, 0, 0, [1, 0, 0, 0, 0, 1]>, <130, 18, 31, 13, 11, 0, 0, [1, 0, 0, 0, 0, 1]>, <131, 19, 32, 13, 11, 0, 0, [1, 0, 0, 0, 0, 1]>, <132, 20, 33, 13, 11, 0, 0, [1, 0, 0, 0, 0, 1]>, <133, 21, 34, 13, 11, 0, 0, [1, 0, 0, 0, 0, 1]>, <134, 22, 35, 13, 11, 0, 0, [1, 0, 0, 0, 0, 1]>, <135, 4, 17, 13, 12, 0, 1, [0, 1, 1, 0, 0, 0]>, <136, 5, 18, 13, 12, 0, 1, [0, 1, 1, 0, 0, 0]>, <137, 6, 19, 13, 12, 0, 1, [0, 1, 1, 0, 0, 0]>, <138, 13, 26, 13, 12, 0, 1, [0, 1, 1, 0, 0, 0]>, <139, 14, 27, 13, 12, 0, 1, [0, 1, 1, 0, 0, 0]>, <140, 15, 28, 13, 12, 0, 1, [0, 1, 1, 0, 0, 0]>, <141, 18, 31, 13, 12, 0, 1, [0, 1, 1, 0, 0, 0]>, <142, 19, 32, 13, 12, 0, 1, [0, 1, 1, 0, 0, 0]>, <143, 20, 33, 13, 12, 0, 1, [0, 1, 1, 0, 0, 0]>, <144, 21, 34, 13, 12, 0, 1, [0, 1, 1, 0, 0, 0]>, <145, 22, 35, 13, 12, 0, 1, [0, 1, 1, 0, 0, 0]>, <146, 4, 17, 13, 13, 0, 1, [0, 0, 0, 0, 1, 1]>, <147, 5, 18, 13, 13, 0, 1, [0, 0, 0, 0, 1, 1]>, <148, 6, 19, 13, 13, 0, 1, [0, 0, 0, 0, 1, 1]>, <149, 13, 26, 13, 13, 0, 1, [0, 0, 0, 0, 1, 1]>, <150, 14, 27, 13, 13, 0, 1, [0, 0, 0, 0, 1, 1]>, <151, 15, 28, 13, 13, 0, 1, [0, 0, 0, 0, 1, 1]>, <152, 18, 31, 13, 13, 0, 1, [0, 0, 0, 0, 1, 1]>, <153, 19, 32, 13, 13, 0, 1, [0, 0, 0, 0, 1, 1]>, <154, 20, 33, 13, 13, 0, 1, [0, 0, 0, 0, 1, 1]>, <155, 21, 34, 13, 13, 0, 1, [0, 0, 0, 0, 1, 1]>, <156, 22, 35, 13, 13, 0, 1, [0, 0, 0, 0, 1, 1]>, <157, 5, 17, 12, 14, 0, 1, [1, 0, 0, 0, 0, 1]>, <158, 6, 18, 12, 14, 0, 1, [1, 0, 0, 0, 0, 1]>, <159, 14, 26, 12, 14, 0, 1, [1, 0, 0, 0, 0, 1]>, <160, 15, 27, 12, 14, 0, 1, [1, 0, 0, 0, 0, 1]>, <161, 19, 31, 12, 14, 0, 1, [1, 0, 0, 0, 0, 1]>, <162, 20, 32, 12, 14, 0, 1, [1, 0, 0, 0, 0, 1]>, <163, 21, 33, 12, 14, 0, 1, [1, 0, 0, 0, 0, 1]>, <164, 22, 34, 12, 14, 0, 1, [1, 0, 0, 0, 0, 1]>, <165, 23, 35, 12, 14, 0, 1, [1, 0, 0, 0, 0, 1]>};
